Traveling Salesman Problem/TSP_generados/Aleatorio1621103842_18.tsp
NAME: Aleatorio1621103842_18.tsp
COMMENT: Randomly generated scenario
TYPE: TSP
DIMENSION: 18
EDGE_WEIGHT_TYPE: ATT
NODE_COORD_SECTION
1 18.48 22.3
2 1.61 14.31
3 19.95 36.19
4 9.04 24.98
5 31.64 2.38
6 22.23 44.5
7 8.22 49.71
8 27.04 42.06
9 25.7 0.9
10 48.44 1.48
11 16.57 47.79
12 39.91 17.06
13 3.43 32.26
14 17.26 14.24
15 41.94 22.45
16 6.27 0.54
17 0.36 24.67
18 28.5 38.64
