Traveling Salesman Problem/TSP_generados/Aleatorio1621103842_18.opt.tour
NAME: Aleatorio1621103842_18.opt.tour
COMMENT: Optimal solution for Aleatorio1621103842_18 (206.7179938142589)
TYPE: TOUR
DIMENSION: 18
TOUR_SECTION
1 4 17 13 7 11 6 3 8 18 15 12 10 5 9 16 2 14
-1
EOF
